1111111 AB
360 390 420 450 480 510 540 570 600 630 660 690 720 750 780 810 840 870 900 930 960 990 1020 1050 1080 1110 1140 1170 1200 1230
1111111 BA
405 435 465 495 525 555 585 615 645 675 705 735 765 795 825 855 885 915 945 975 1005 1035 1065 1095 1125 1155 1185 1215 1245 1275
